7048
12780
994
487
6318
864
16056
1963
14220
2548
6608
7308
10736
3861
480
168
5187
13824
7893
8910
5310
12960
6972
3780
8802
7777
8802
2915
15336
4669
328
3444
1683
6528
3726
5376
612
3668
9564
9945
3672
224
16592
1587
13532
1045
452
